c An instance of conditional planning (by rintanen@informatik.uni-ulm.de)
p cnf 294 1046
e 200 201 202 203 204 205 206 207 208 209 210 211 212 213 214 215 216 217 218 219 220 221 222 223 224 225 226 227 228 229 230 231 232 233 234 235 236 237 238 239 240 241 242 243 244 245 246 247 248 249 250 251 252 253 254 255 256 257 258 259 260 261 262 263 264 265 266 267 268 269 270 271 272 273 274 275 276 0
a 279 278 280 0
e 1 2 3 4 5 6 7 8 9 10 11 12 13 14 15 16 17 18 19 20 21 22 23 24 25 26 27 28 29 30 31 32 33 34 35 36 37 38 39 40 41 42 43 44 45 46 47 48 49 50 51 52 53 54 55 56 57 58 59 60 61 62 63 64 65 66 67 68 69 70 71 72 73 74 75 76 77 78 79 80 81 82 83 84 85 86 87 88 89 90 91 92 93 94 95 96 97 98 99 100 101 102 103 104 105 106 107 108 109 110 111 112 113 114 115 116 117 118 119 120 121 122 123 124 125 126 127 128 129 130 131 132 133 134 135 136 137 138 139 140 141 142 143 144 145 146 147 148 149 150 151 152 153 154 155 156 157 158 159 160 161 162 163 164 165 166 167 168 169 170 171 172 173 174 175 176 177 178 179 180 181 182 183 184 185 186 187 188 189 190 191 192 193 194 195 196 197 198 199 277 281 282 283 284 285 286 287 288 289 290 291 292 293 294 0
-279 -281 278 280 0
-279 -282 278 280 0
-279 -283 278 280 0
-279 278 280 284 0
-279 -285 278 280 0
-279 -286 278 280 0
-278 -280 -281 279 0
-278 -280 -282 279 0
-278 -280 279 283 0
-278 -280 -284 279 0
-278 -280 -285 279 0
-278 -280 -286 279 0
-278 -281 279 280 0
-278 279 280 282 0
-278 -283 279 280 0
-278 -284 279 280 0
-278 -285 279 280 0
-278 -286 279 280 0
-280 278 279 281 0
-280 -282 278 279 0
-280 -283 278 279 0
-280 -284 278 279 0
-280 -285 278 279 0
-280 -286 278 279 0
-281 278 279 280 0
-282 278 279 280 0
-283 278 279 280 0
-284 278 279 280 0
-285 278 279 280 0
278 279 280 286 0
-279 -280 -281 278 0
-279 -280 -282 278 0
-279 -280 -283 278 0
-279 -280 -284 278 0
-279 -280 278 285 0
-279 -280 -286 278 0
-287 0
-288 0
-289 0
-290 0
-291 0
-292 0
-293 0
294 0
-200 -287 0
-200 -288 0
-90 -201 0
-80 -201 0
-91 -202 0
-81 -202 0
-92 -203 0
-82 -203 0
-93 -204 0
-83 -204 0
-94 -205 0
-84 -205 0
-95 -206 0
-85 -206 0
-96 -207 0
-86 -207 0
-97 -208 0
-87 -208 0
-98 -209 0
-88 -209 0
-211 -289 0
-211 -287 0
-110 -212 0
-90 -212 0
-111 -213 0
-91 -213 0
-112 -214 0
-92 -214 0
-113 -215 0
-93 -215 0
-114 -216 0
-94 -216 0
-115 -217 0
-95 -217 0
-116 -218 0
-96 -218 0
-117 -219 0
-97 -219 0
-118 -220 0
-98 -220 0
-222 -290 0
-222 -287 0
-130 -223 0
-90 -223 0
-131 -224 0
-91 -224 0
-132 -225 0
-92 -225 0
-133 -226 0
-93 -226 0
-134 -227 0
-94 -227 0
-135 -228 0
-95 -228 0
-136 -229 0
-96 -229 0
-137 -230 0
-97 -230 0
-138 -231 0
-98 -231 0
-233 -291 0
-233 -287 0
-150 -234 0
-90 -234 0
-151 -235 0
-91 -235 0
-152 -236 0
-92 -236 0
-153 -237 0
-93 -237 0
-154 -238 0
-94 -238 0
-155 -239 0
-95 -239 0
-156 -240 0
-96 -240 0
-157 -241 0
-97 -241 0
-158 -242 0
-98 -242 0
-244 -292 0
-244 -287 0
-170 -245 0
-90 -245 0
-171 -246 0
-91 -246 0
-172 -247 0
-92 -247 0
-173 -248 0
-93 -248 0
-174 -249 0
-94 -249 0
-175 -250 0
-95 -250 0
-176 -251 0
-96 -251 0
-177 -252 0
-97 -252 0
-178 -253 0
-98 -253 0
-255 -293 0
-255 -287 0
-190 -257 0
-90 -257 0
-191 -259 0
-91 -259 0
-192 -261 0
-92 -261 0
-193 -263 0
-93 -263 0
-194 -265 0
-94 -265 0
-195 -267 0
-95 -267 0
-196 -269 0
-96 -269 0
-197 -271 0
-97 -271 0
-198 -273 0
-98 -273 0
-200 90 0
-200 80 0
-201 91 0
-201 81 0
-202 92 0
-202 82 0
-203 93 0
-203 83 0
-204 94 0
-204 84 0
-205 95 0
-205 85 0
-206 96 0
-206 86 0
-207 97 0
-207 87 0
-208 98 0
-208 88 0
-209 99 0
-209 89 0
-211 110 0
-211 90 0
-212 111 0
-212 91 0
-213 112 0
-213 92 0
-214 113 0
-214 93 0
-215 114 0
-215 94 0
-216 115 0
-216 95 0
-217 116 0
-217 96 0
-218 117 0
-218 97 0
-219 118 0
-219 98 0
-220 119 0
-220 99 0
-222 130 0
-222 90 0
-223 131 0
-223 91 0
-224 132 0
-224 92 0
-225 133 0
-225 93 0
-226 134 0
-226 94 0
-227 135 0
-227 95 0
-228 136 0
-228 96 0
-229 137 0
-229 97 0
-230 138 0
-230 98 0
-231 139 0
-231 99 0
-233 150 0
-233 90 0
-234 151 0
-234 91 0
-235 152 0
-235 92 0
-236 153 0
-236 93 0
-237 154 0
-237 94 0
-238 155 0
-238 95 0
-239 156 0
-239 96 0
-240 157 0
-240 97 0
-241 158 0
-241 98 0
-242 159 0
-242 99 0
-244 170 0
-244 90 0
-245 171 0
-245 91 0
-246 172 0
-246 92 0
-247 173 0
-247 93 0
-248 174 0
-248 94 0
-249 175 0
-249 95 0
-250 176 0
-250 96 0
-251 177 0
-251 97 0
-252 178 0
-252 98 0
-253 179 0
-253 99 0
-255 190 0
-255 90 0
-257 191 0
-257 91 0
-259 192 0
-259 92 0
-261 193 0
-261 93 0
-263 194 0
-263 94 0
-265 195 0
-265 95 0
-267 196 0
-267 96 0
-269 197 0
-269 97 0
-271 198 0
-271 98 0
-273 199 0
-273 99 0
-90 -256 0
-91 -258 0
-92 -260 0
-93 -262 0
-94 -264 0
-95 -266 0
-96 -268 0
-97 -270 0
-98 -272 0
-99 -274 0
-9 -200 -286 0
-8 -17 -201 0
-16 -25 -202 0
-24 -33 -203 0
-32 -41 -204 0
-40 -49 -205 0
-48 -57 -206 0
-56 -65 -207 0
-64 -73 -208 0
-72 -209 -277 0
-9 -211 -281 0
-17 -100 -212 0
-25 -101 -213 0
-33 -102 -214 0
-41 -103 -215 0
-49 -104 -216 0
-57 -105 -217 0
-65 -106 -218 0
-73 -107 -219 0
-108 -220 -277 0
-9 -222 -282 0
-17 -120 -223 0
-25 -121 -224 0
-33 -122 -225 0
-41 -123 -226 0
-49 -124 -227 0
-57 -125 -228 0
-65 -126 -229 0
-73 -127 -230 0
-128 -231 -277 0
-9 -233 -283 0
-17 -140 -234 0
-25 -141 -235 0
-33 -142 -236 0
-41 -143 -237 0
-49 -144 -238 0
-57 -145 -239 0
-65 -146 -240 0
-73 -147 -241 0
-148 -242 -277 0
-9 -244 -284 0
-17 -160 -245 0
-25 -161 -246 0
-33 -162 -247 0
-41 -163 -248 0
-49 -164 -249 0
-57 -165 -250 0
-65 -166 -251 0
-73 -167 -252 0
-168 -253 -277 0
-9 -255 -285 0
-17 -180 -257 0
-25 -181 -259 0
-33 -182 -261 0
-41 -183 -263 0
-49 -184 -265 0
-57 -185 -267 0
-65 -186 -269 0
-73 -187 -271 0
-188 -273 -277 0
-8 286 0
-16 8 0
-24 16 0
-32 24 0
-40 32 0
-48 40 0
-56 48 0
-64 56 0
-72 64 0
-1 72 0
-286 8 0
-8 16 0
-16 24 0
-24 32 0
-32 40 0
-40 48 0
-48 56 0
-56 64 0
-64 72 0
-72 1 0
-9 294 0
-17 9 0
-25 17 0
-33 25 0
-41 33 0
-49 41 0
-57 49 0
-65 57 0
-73 65 0
-277 73 0
-2 211 0
-2 281 0
-211 -281 2 0
-3 222 0
-3 282 0
-222 -282 3 0
-4 233 0
-4 283 0
-233 -283 4 0
-5 244 0
-5 284 0
-244 -284 5 0
-6 255 0
-6 285 0
-255 -285 6 0
-7 200 0
-7 286 0
-200 -286 7 0
-294 2 3 4 5 6 7 9 0
-10 212 0
-10 100 0
-100 -212 10 0
-11 223 0
-11 120 0
-120 -223 11 0
-12 234 0
-12 140 0
-140 -234 12 0
-13 245 0
-13 160 0
-160 -245 13 0
-14 257 0
-14 180 0
-180 -257 14 0
-15 201 0
-15 8 0
-8 -201 15 0
-9 10 11 12 13 14 15 17 0
-18 213 0
-18 101 0
-101 -213 18 0
-19 224 0
-19 121 0
-121 -224 19 0
-20 235 0
-20 141 0
-141 -235 20 0
-21 246 0
-21 161 0
-161 -246 21 0
-22 259 0
-22 181 0
-181 -259 22 0
-23 202 0
-23 16 0
-16 -202 23 0
-17 18 19 20 21 22 23 25 0
-26 214 0
-26 102 0
-102 -214 26 0
-27 225 0
-27 122 0
-122 -225 27 0
-28 236 0
-28 142 0
-142 -236 28 0
-29 247 0
-29 162 0
-162 -247 29 0
-30 261 0
-30 182 0
-182 -261 30 0
-31 203 0
-31 24 0
-24 -203 31 0
-25 26 27 28 29 30 31 33 0
-34 215 0
-34 103 0
-103 -215 34 0
-35 226 0
-35 123 0
-123 -226 35 0
-36 237 0
-36 143 0
-143 -237 36 0
-37 248 0
-37 163 0
-163 -248 37 0
-38 263 0
-38 183 0
-183 -263 38 0
-39 204 0
-39 32 0
-32 -204 39 0
-33 34 35 36 37 38 39 41 0
-42 216 0
-42 104 0
-104 -216 42 0
-43 227 0
-43 124 0
-124 -227 43 0
-44 238 0
-44 144 0
-144 -238 44 0
-45 249 0
-45 164 0
-164 -249 45 0
-46 265 0
-46 184 0
-184 -265 46 0
-47 205 0
-47 40 0
-40 -205 47 0
-41 42 43 44 45 46 47 49 0
-50 217 0
-50 105 0
-105 -217 50 0
-51 228 0
-51 125 0
-125 -228 51 0
-52 239 0
-52 145 0
-145 -239 52 0
-53 250 0
-53 165 0
-165 -250 53 0
-54 267 0
-54 185 0
-185 -267 54 0
-55 206 0
-55 48 0
-48 -206 55 0
-49 50 51 52 53 54 55 57 0
-58 218 0
-58 106 0
-106 -218 58 0
-59 229 0
-59 126 0
-126 -229 59 0
-60 240 0
-60 146 0
-146 -240 60 0
-61 251 0
-61 166 0
-166 -251 61 0
-62 269 0
-62 186 0
-186 -269 62 0
-63 207 0
-63 56 0
-56 -207 63 0
-57 58 59 60 61 62 63 65 0
-66 219 0
-66 107 0
-107 -219 66 0
-67 230 0
-67 127 0
-127 -230 67 0
-68 241 0
-68 147 0
-147 -241 68 0
-69 252 0
-69 167 0
-167 -252 69 0
-70 271 0
-70 187 0
-187 -271 70 0
-71 208 0
-71 64 0
-64 -208 71 0
-65 66 67 68 69 70 71 73 0
-74 220 0
-74 108 0
-108 -220 74 0
-75 231 0
-75 128 0
-128 -231 75 0
-76 242 0
-76 148 0
-148 -242 76 0
-77 253 0
-77 168 0
-168 -253 77 0
-78 273 0
-78 188 0
-188 -273 78 0
-79 209 0
-79 72 0
-72 -209 79 0
-73 74 75 76 77 78 79 277 0
-80 200 288 0
-81 80 201 0
-82 81 202 0
-83 82 203 0
-84 83 204 0
-85 84 205 0
-86 85 206 0
-87 86 207 0
-88 87 208 0
-89 88 209 0
-288 80 0
-80 81 0
-81 82 0
-82 83 0
-83 84 0
-84 85 0
-85 86 0
-86 87 0
-87 88 0
-88 89 0
-90 200 211 222 233 244 255 287 0
-91 90 201 212 223 234 245 257 0
-92 91 202 213 224 235 246 259 0
-93 92 203 214 225 236 247 261 0
-94 93 204 215 226 237 248 263 0
-95 94 205 216 227 238 249 265 0
-96 95 206 217 228 239 250 267 0
-97 96 207 218 229 240 251 269 0
-98 97 208 219 230 241 252 271 0
-99 98 209 220 231 242 253 273 0
-287 90 256 0
-90 91 258 0
-91 92 260 0
-92 93 262 0
-93 94 264 0
-94 95 266 0
-95 96 268 0
-96 97 270 0
-97 98 272 0
-98 99 274 0
-100 281 0
-101 100 0
-102 101 0
-103 102 0
-104 103 0
-105 104 0
-106 105 0
-107 106 0
-108 107 0
-109 108 0
-281 100 0
-100 101 0
-101 102 0
-102 103 0
-103 104 0
-104 105 0
-105 106 0
-106 107 0
-107 108 0
-108 109 0
-110 211 289 0
-111 110 212 0
-112 111 213 0
-113 112 214 0
-114 113 215 0
-115 114 216 0
-116 115 217 0
-117 116 218 0
-118 117 219 0
-119 118 220 0
-289 110 0
-110 111 0
-111 112 0
-112 113 0
-113 114 0
-114 115 0
-115 116 0
-116 117 0
-117 118 0
-118 119 0
-120 282 0
-121 120 0
-122 121 0
-123 122 0
-124 123 0
-125 124 0
-126 125 0
-127 126 0
-128 127 0
-129 128 0
-282 120 0
-120 121 0
-121 122 0
-122 123 0
-123 124 0
-124 125 0
-125 126 0
-126 127 0
-127 128 0
-128 129 0
-130 222 290 0
-131 130 223 0
-132 131 224 0
-133 132 225 0
-134 133 226 0
-135 134 227 0
-136 135 228 0
-137 136 229 0
-138 137 230 0
-139 138 231 0
-290 130 0
-130 131 0
-131 132 0
-132 133 0
-133 134 0
-134 135 0
-135 136 0
-136 137 0
-137 138 0
-138 139 0
-140 283 0
-141 140 0
-142 141 0
-143 142 0
-144 143 0
-145 144 0
-146 145 0
-147 146 0
-148 147 0
-149 148 0
-283 140 0
-140 141 0
-141 142 0
-142 143 0
-143 144 0
-144 145 0
-145 146 0
-146 147 0
-147 148 0
-148 149 0
-150 233 291 0
-151 150 234 0
-152 151 235 0
-153 152 236 0
-154 153 237 0
-155 154 238 0
-156 155 239 0
-157 156 240 0
-158 157 241 0
-159 158 242 0
-291 150 0
-150 151 0
-151 152 0
-152 153 0
-153 154 0
-154 155 0
-155 156 0
-156 157 0
-157 158 0
-158 159 0
-160 284 0
-161 160 0
-162 161 0
-163 162 0
-164 163 0
-165 164 0
-166 165 0
-167 166 0
-168 167 0
-169 168 0
-284 160 0
-160 161 0
-161 162 0
-162 163 0
-163 164 0
-164 165 0
-165 166 0
-166 167 0
-167 168 0
-168 169 0
-170 244 292 0
-171 170 245 0
-172 171 246 0
-173 172 247 0
-174 173 248 0
-175 174 249 0
-176 175 250 0
-177 176 251 0
-178 177 252 0
-179 178 253 0
-292 170 0
-170 171 0
-171 172 0
-172 173 0
-173 174 0
-174 175 0
-175 176 0
-176 177 0
-177 178 0
-178 179 0
-180 285 0
-181 180 0
-182 181 0
-183 182 0
-184 183 0
-185 184 0
-186 185 0
-187 186 0
-188 187 0
-189 188 0
-285 180 0
-180 181 0
-181 182 0
-182 183 0
-183 184 0
-184 185 0
-185 186 0
-186 187 0
-187 188 0
-188 189 0
-190 255 293 0
-191 190 257 0
-192 191 259 0
-193 192 261 0
-194 193 263 0
-195 194 265 0
-196 195 267 0
-197 196 269 0
-198 197 271 0
-199 198 273 0
-293 190 0
-190 191 0
-191 192 0
-192 193 0
-193 194 0
-194 195 0
-195 196 0
-196 197 0
-197 198 0
-198 199 0
-200 -211 0
-201 -212 0
-202 -213 0
-203 -214 0
-204 -215 0
-205 -216 0
-206 -217 0
-207 -218 0
-208 -219 0
-209 -220 0
-210 -221 0
-200 -222 0
-201 -223 0
-202 -224 0
-203 -225 0
-204 -226 0
-205 -227 0
-206 -228 0
-207 -229 0
-208 -230 0
-209 -231 0
-210 -232 0
-200 -233 0
-201 -234 0
-202 -235 0
-203 -236 0
-204 -237 0
-205 -238 0
-206 -239 0
-207 -240 0
-208 -241 0
-209 -242 0
-210 -243 0
-200 -244 0
-201 -245 0
-202 -246 0
-203 -247 0
-204 -248 0
-205 -249 0
-206 -250 0
-207 -251 0
-208 -252 0
-209 -253 0
-210 -254 0
-200 -255 0
-201 -257 0
-202 -259 0
-203 -261 0
-204 -263 0
-205 -265 0
-206 -267 0
-207 -269 0
-208 -271 0
-209 -273 0
-210 -275 0
-200 -256 0
-201 -258 0
-202 -260 0
-203 -262 0
-204 -264 0
-205 -266 0
-206 -268 0
-207 -270 0
-208 -272 0
-209 -274 0
-210 -276 0
-211 -222 0
-212 -223 0
-213 -224 0
-214 -225 0
-215 -226 0
-216 -227 0
-217 -228 0
-218 -229 0
-219 -230 0
-220 -231 0
-221 -232 0
-211 -233 0
-212 -234 0
-213 -235 0
-214 -236 0
-215 -237 0
-216 -238 0
-217 -239 0
-218 -240 0
-219 -241 0
-220 -242 0
-221 -243 0
-211 -244 0
-212 -245 0
-213 -246 0
-214 -247 0
-215 -248 0
-216 -249 0
-217 -250 0
-218 -251 0
-219 -252 0
-220 -253 0
-221 -254 0
-211 -255 0
-212 -257 0
-213 -259 0
-214 -261 0
-215 -263 0
-216 -265 0
-217 -267 0
-218 -269 0
-219 -271 0
-220 -273 0
-221 -275 0
-211 -256 0
-212 -258 0
-213 -260 0
-214 -262 0
-215 -264 0
-216 -266 0
-217 -268 0
-218 -270 0
-219 -272 0
-220 -274 0
-221 -276 0
-222 -233 0
-223 -234 0
-224 -235 0
-225 -236 0
-226 -237 0
-227 -238 0
-228 -239 0
-229 -240 0
-230 -241 0
-231 -242 0
-232 -243 0
-222 -244 0
-223 -245 0
-224 -246 0
-225 -247 0
-226 -248 0
-227 -249 0
-228 -250 0
-229 -251 0
-230 -252 0
-231 -253 0
-232 -254 0
-222 -255 0
-223 -257 0
-224 -259 0
-225 -261 0
-226 -263 0
-227 -265 0
-228 -267 0
-229 -269 0
-230 -271 0
-231 -273 0
-232 -275 0
-222 -256 0
-223 -258 0
-224 -260 0
-225 -262 0
-226 -264 0
-227 -266 0
-228 -268 0
-229 -270 0
-230 -272 0
-231 -274 0
-232 -276 0
-233 -244 0
-234 -245 0
-235 -246 0
-236 -247 0
-237 -248 0
-238 -249 0
-239 -250 0
-240 -251 0
-241 -252 0
-242 -253 0
-243 -254 0
-233 -255 0
-234 -257 0
-235 -259 0
-236 -261 0
-237 -263 0
-238 -265 0
-239 -267 0
-240 -269 0
-241 -271 0
-242 -273 0
-243 -275 0
-233 -256 0
-234 -258 0
-235 -260 0
-236 -262 0
-237 -264 0
-238 -266 0
-239 -268 0
-240 -270 0
-241 -272 0
-242 -274 0
-243 -276 0
-244 -255 0
-245 -257 0
-246 -259 0
-247 -261 0
-248 -263 0
-249 -265 0
-250 -267 0
-251 -269 0
-252 -271 0
-253 -273 0
-254 -275 0
-244 -256 0
-245 -258 0
-246 -260 0
-247 -262 0
-248 -264 0
-249 -266 0
-250 -268 0
-251 -270 0
-252 -272 0
-253 -274 0
-254 -276 0
-255 -256 0
-257 -258 0
-259 -260 0
-261 -262 0
-263 -264 0
-265 -266 0
-267 -268 0
-269 -270 0
-271 -272 0
-273 -274 0
-275 -276 0
-277 0
